; Options: -in -smt2
(set-option :produce-unsat-assumptions true)

(declare-fun start!2787 () Bool)

(assert start!2787)

(declare-fun b!15249 () Bool)

(declare-fun res!11847 () Bool)

(declare-fun e!8675 () Bool)

(assert (=> b!15249 (=> (not res!11847) (not e!8675))))

(declare-datatypes ((array!1251 0))(
  ( (array!1252 (arr!551 (Array (_ BitVec 32) (_ BitVec 32))) (size!551 (_ BitVec 32))) )
))
(declare-fun iq!146 () array!1251)

(declare-fun iqInv!0 (array!1251) Bool)

(assert (=> b!15249 (= res!11847 (iqInv!0 iq!146))))

(declare-fun b!15248 () Bool)

(declare-fun res!11848 () Bool)

(assert (=> b!15248 (=> (not res!11848) (not e!8675))))

(declare-fun z!100 () (_ FloatingPoint 11 53))

(declare-fun j!78 () (_ BitVec 32))

(declare-fun jz!49 () (_ BitVec 32))

(assert (=> b!15248 (= res!11848 (and (bvsle #b00000000000000000000000000000000 j!78) (bvsle j!78 jz!49) (fp.leq (fp #b0 #b00000000000 #b0000000000000000000000000000000000000000000000000000) z!100) (fp.leq z!100 (fp #b0 #b10000110001 #b0100000000000000000000010011111111111111111111111100))))))

(declare-fun res!11849 () Bool)

(assert (=> start!2787 (=> (not res!11849) (not e!8675))))

(assert (=> start!2787 (= res!11849 (and (bvsle #b00000000000000000000000000000010 jz!49) (bvslt jz!49 #b00000000000000000000000000010011)))))

(assert (=> start!2787 e!8675))

(assert (=> start!2787 true))

(declare-fun array_inv!499 (array!1251) Bool)

(assert (=> start!2787 (array_inv!499 iq!146)))

(declare-datatypes ((array!1253 0))(
  ( (array!1254 (arr!552 (Array (_ BitVec 32) (_ FloatingPoint 11 53))) (size!552 (_ BitVec 32))) )
))
(declare-fun q!79 () array!1253)

(declare-fun array_inv!500 (array!1253) Bool)

(assert (=> start!2787 (array_inv!500 q!79)))

(declare-fun b!15247 () Bool)

(declare-fun res!11850 () Bool)

(assert (=> b!15247 (=> (not res!11850) (not e!8675))))

(declare-fun qInv!0 (array!1253) Bool)

(assert (=> b!15247 (= res!11850 (qInv!0 q!79))))

(declare-fun b!15250 () Bool)

(assert (=> b!15250 (= e!8675 (and (bvsgt j!78 #b00000000000000000000000000000000) (let ((expr!19 (fp.sub roundNearestTiesToEven z!100 (fp.mul roundNearestTiesToEven (fp #b0 #b10000010111 #b0000000000000000000000000000000000000000000000000000) ((_ to_fp 11 53) roundNearestTiesToEven (ite (fp.isNaN (fp.mul roundNearestTiesToEven (fp #b0 #b01111100111 #b0000000000000000000000000000000000000000000000000000) z!100)) #b00000000000000000000000000000000 (ite (fp.gt (fp.mul roundNearestTiesToEven (fp #b0 #b01111100111 #b0000000000000000000000000000000000000000000000000000) z!100) ((_ to_fp 11 53) roundTowardZero #b01111111111111111111111111111111)) #b01111111111111111111111111111111 (ite (fp.lt (fp.mul roundNearestTiesToEven (fp #b0 #b01111100111 #b0000000000000000000000000000000000000000000000000000) z!100) ((_ to_fp 11 53) roundTowardZero #b10000000000000000000000000000000)) #b10000000000000000000000000000000 ((_ fp.to_sbv 32) roundTowardZero (fp.mul roundNearestTiesToEven (fp #b0 #b01111100111 #b0000000000000000000000000000000000000000000000000000) z!100)))))))))) (and (not (fp.isNaN expr!19)) (not (fp.gt expr!19 ((_ to_fp 11 53) roundTowardNegative #b101111111111111111111111111111111)))))))))

(assert (= (and start!2787 res!11849) b!15247))

(assert (= (and b!15247 res!11850) b!15248))

(assert (= (and b!15248 res!11848) b!15249))

(assert (= (and b!15249 res!11847) b!15250))

(declare-fun m!21485 () Bool)

(assert (=> b!15249 m!21485))

(declare-fun m!21487 () Bool)

(assert (=> start!2787 m!21487))

(declare-fun m!21489 () Bool)

(assert (=> start!2787 m!21489))

(declare-fun m!21491 () Bool)

(assert (=> b!15247 m!21491))

(check-sat (not b!15249) (not start!2787) (not b!15247))
(check-sat)
